datasets/5l7i.nl
g3 3 1 0	# problem 5l7i
 42 35 1 0 35	# vars, constraints, objectives, ranges, eqns
 0 1	# nonlinear constraints, objectives
 0 0	# network constraints: nonlinear, linear
 0 21 0	# nonlinear vars in constraints, objectives, both
 0 0 0 1	# linear network variables; functions; arith, flags
 0 21 0 0 21	# discrete variables: binary, integer, nonlinear (b,c,o)
 84 21	# nonzeros in Jacobian, gradients
 0 0	# max name lengths: constraints, variables
 0 0 0 0 0	# common exprs: b,c,o,c1,o1
b
2 0
2 0
2 0
2 0
2 0
2 0
2 0
2 0
2 0
2 0
2 0
2 0
2 0
2 0
2 0
2 0
2 0
2 0
2 0
2 0
2 0
0 0 100
0 0 100
0 0 100
0 0 100
0 0 100
0 0 100
0 0 100
0 0 100
0 0 100
0 0 100
0 0 100
0 0 90
0 0 100
0 0 100
0 0 100
0 0 100
0 0 100
0 0 100
0 0 100
0 0 100
0 0 100
r
4 400
4 400
4 400
4 400
4 400
4 400
4 400
4 -150
4 -150
4 -170
4 -100
4 -160
4 -150
4 -110
4 -170
4 -120
4 -130
4 -130
4 -90
4 -200
4 -190
4 -180
4 -230
4 -200
4 -270
4 -250
4 -150
4 -200
4 100
4 100
4 100
4 100
4 100
4 100
4 100
C0
n0
C1
n0
C2
n0
C3
n0
C4
n0
C5
n0
C6
n0
C7
n0
C8
n0
C9
n0
C10
n0
C11
n0
C12
n0
C13
n0
C14
n0
C15
n0
C16
n0
C17
n0
C18
n0
C19
n0
C20
n0
C21
n0
C22
n0
C23
n0
C24
n0
C25
n0
C26
n0
C27
n0
C28
n0
C29
n0
C30
n0
C31
n0
C32
n0
C33
n0
C34
n0
O0 0
o54
22
o2
n10000
o5
o16
o3
v0
n-150
n2
o2
n10000
o5
o16
o3
v1
n-150
n2
o2
n10000
o5
o16
o3
v2
n-170
n2
o2
n10000
o5
o16
o3
v3
n-100
n2
o2
n10000
o5
o16
o3
v4
n-160
n2
o2
n10000
o5
o16
o3
v5
n-150
n2
o2
n10000
o5
o16
o3
v6
n-110
n2
o2
n10000
o5
o16
o3
v7
n-170
n2
o2
n10000
o5
o16
o3
v8
n-120
n2
o2
n10000
o5
o16
o3
v9
n-130
n2
o2
n10000
o5
o16
o3
v10
n-130
n2
o2
n10000
o5
o16
o3
v11
n-90
n2
o2
n10000
o5
o16
o3
v12
n-200
n2
o2
n10000
o5
o16
o3
v13
n-190
n2
o2
n10000
o5
o16
o3
v14
n-180
n2
o2
n10000
o5
o16
o3
v15
n-230
n2
o2
n10000
o5
o16
o3
v16
n-200
n2
o2
n10000
o5
o16
o3
v17
n-270
n2
o2
n10000
o5
o16
o3
v18
n-250
n2
o2
n10000
o5
o16
o3
v19
n-150
n2
o2
n10000
o5
o16
o3
v20
n-200
n2
n1086400
k41
2
4
6
8
10
12
14
16
18
20
22
24
26
28
30
32
34
36
38
40
42
44
46
48
50
52
54
56
58
60
62
64
66
68
70
72
74
76
78
80
82
J0 3
0 1
7 1
14 1
J1 3
1 1
8 1
15 1
J2 3
2 1
9 1
16 1
J3 3
3 1
10 1
17 1
J4 3
4 1
11 1
18 1
J5 3
5 1
12 1
19 1
J6 3
6 1
13 1
20 1
J7 2
0 -1
21 -1
J8 2
1 -1
22 -1
J9 2
2 -1
23 -1
J10 2
3 -1
24 -1
J11 2
4 -1
25 -1
J12 2
5 -1
26 -1
J13 2
6 -1
27 -1
J14 2
7 -1
28 -1
J15 2
8 -1
29 -1
J16 2
9 -1
30 -1
J17 2
10 -1
31 -1
J18 2
11 -1
32 -1
J19 2
12 -1
33 -1
J20 2
13 -1
34 -1
J21 2
14 -1
35 -1
J22 2
15 -1
36 -1
J23 2
16 -1
37 -1
J24 2
17 -1
38 -1
J25 2
18 -1
39 -1
J26 2
19 -1
40 -1
J27 2
20 -1
41 -1
J28 3
21 1
28 1
35 1
J29 3
22 1
29 1
36 1
J30 3
23 1
30 1
37 1
J31 3
24 1
31 1
38 1
J32 3
25 1
32 1
39 1
J33 3
26 1
33 1
40 1
J34 3
27 1
34 1
41 1
G0 21
0 478
1 478
2 478
3 478
4 478
5 478
6 478
7 872
8 872
9 872
10 872
11 872
12 872
13 872
14 589
15 589
16 589
17 589
18 589
19 589
20 589
