datasets/5l7i.sol
 
couenne: Optimal

Options
3
3
1
0
35
0
42
42
150
150
170
99.9999999995006
160
150
110
70
20
30
30
0
100
90
180
230
200
270.0000000004994
240
150
200
0
0
0
4.993978564016288e-10
0
0
0
100
100
100
100
90
100
100
0
0
0
-4.994262781110592e-10
10
0
0
objno 0 3
